19
8 4 5 4 4 12 6 11 12 16 19 8 14 2 8 19 14 13 4 2 2 1 12 11 5 5 12 6 3 9 12 2 14 18 17 9 3 7 8 17 14 19 17 6 10 8 1 1 7 18 11 15 10 13 1 9 3 15 13 9 3 15 6 6 16 18 16 7 18 13 2 18 7 15 14 3 9 2 6 13 12 13 1 19 11 10 14 2 9 11 7 3 11 5 18 16 7 17 8 10
